NAME : N101P6.755.tour
COMMENT : Cost = 0_755
COMMENT : Found by LKH [Keld Helsgaun] Sun Sep 17 15:52:35 2017
TYPE : TOUR
DIMENSION : 101
TOUR_SECTION
1
2
85
40
35
99
80
20
22
79
61
52
41
91
51
34
39
75
53
50
90
88
71
81
10
46
67
7
26
93
83
12
4
59
14
64
73
42
48
31
95
56
45
74
37
19
57
49
84
18
24
69
8
28
25
87
15
9
76
44
43
36
78
94
5
30
101
77
89
60
72
33
100
17
16
96
70
38
65
92
68
58
98
47
27
62
63
11
82
97
54
21
6
55
29
86
32
66
13
3
23
-1
EOF
